objective value:                  0.00150930810500008
x_1_1                                               1 	(obj:0)
x_2_1                                               1 	(obj:0)
x_3_2                                               1 	(obj:0)
x_4_2                                               1 	(obj:0)
x_5_3                                               1 	(obj:0)
x_6_1                                               1 	(obj:0)
x_7_3                                               1 	(obj:0)
x_8_2                                               1 	(obj:0)
x_9_2                                               1 	(obj:0)
x_10_3                                              1 	(obj:0)
x_11_1                                              1 	(obj:0)
x_12_3                                              1 	(obj:0)
x_13_1                                              1 	(obj:0)
x_14_3                                              1 	(obj:0)
x_15_2                                              1 	(obj:0)
x_16_2                                              1 	(obj:0)
x_17_1                                              1 	(obj:0)
x_18_2                                              1 	(obj:0)
x_19_1                                              1 	(obj:0)
x_20_1                                              1 	(obj:0)
ind_1                                               1 	(obj:0)
abs_1_2                                             1 	(obj:0)
ind_2                                               1 	(obj:0)
abs_2_3                                             1 	(obj:0)
ind_3                                               1 	(obj:0)
abs_3_1                                             1 	(obj:0)
epsI                              0.00150930810500008 	(obj:1)
prodt_x_19_1_t_x_20_1_coh_1                         1 	(obj:0)
prodt_x_2_1_t_x_3_1_more_coh_1           5.0383570051 	(obj:0)
prodt_x_6_1_t_x_7_1_more_coh_1           2.7389226924 	(obj:0)
prodt_x_11_1_t_x_12_1_more_coh_1         3.2841300446 	(obj:0)
prodt_x_13_1_t_x_15_1_more_coh_1         1.2823774458 	(obj:0)
prodt_x_17_1_t_x_18_1_more_coh_1         1.1911641286 	(obj:0)
prodt_x_3_2_t_x_5_2_more_coh_2           2.1081327977 	(obj:0)
prodt_x_4_2_t_x_5_2_more_coh_2          2.86524802725 	(obj:0)
prodt_x_8_2_t_x_11_2_more_coh_2         2.08639203775 	(obj:0)
prodt_x_9_2_t_x_14_2_more_coh_2          1.2626146314 	(obj:0)
prodt_x_15_2_t_x_16_2_more_coh_2     1.02321393736667 	(obj:0)
prodt_x_16_2_t_x_17_2_more_coh_2          0.001885712 	(obj:0)
prodt_x_5_3_t_x_6_3_more_coh_3          1.01568373775 	(obj:0)
prodt_x_7_3_t_x_9_3_more_coh_3          1.77276566565 	(obj:0)
prodt_x_10_3_t_x_11_3_more_coh_3         1.1853195283 	(obj:0)
prodt_x_12_3_t_x_13_3_more_coh_3         0.0007002132 	(obj:0)
prodt_x_2_1_t_x_3_2_more_irrev1_2_1           1.82885261 	(obj:0)
prodt_x_3_2_t_x_5_1_more_irrev1_2_1    0.802879549999999 	(obj:0)
prodt_x_4_2_t_x_5_1_more_irrev1_2_1    0.602117979999999 	(obj:0)
prodt_x_6_1_t_x_7_2_more_irrev1_2_1     1.70066995999998 	(obj:0)
prodt_x_8_2_t_x_12_1_more_irrev1_2_1     3.05258232000002 	(obj:0)
prodt_x_9_2_t_x_10_1_more_irrev1_2_1           1.71781092 	(obj:0)
prodt_x_11_1_t_x_14_2_more_irrev1_2_1           1.23027673 	(obj:0)
prodt_x_13_1_t_x_14_2_more_irrev1_2_1    0.928668389999999 	(obj:0)
prodt_x_15_2_t_x_17_1_more_irrev1_2_1    0.930085539999998 	(obj:0)
prodt_x_16_2_t_x_17_1_more_irrev1_2_1    0.506910879999999 	(obj:0)
prodt_x_17_1_t_x_18_2_more_irrev1_2_1            0.3800445 	(obj:0)
prodt_x_18_2_t_x_19_1_more_irrev1_2_1    0.832742509999996 	(obj:0)
prodt_x_2_1_t_x_4_2_more_irrev2_2_1          -1.82885261 	(obj:0)
prodt_x_3_2_t_x_6_1_more_irrev2_2_1   -0.802879549999998 	(obj:0)
prodt_x_4_2_t_x_7_1_more_irrev2_2_1   -0.602117979999999 	(obj:0)
prodt_x_6_1_t_x_7_2_more_irrev2_2_1    -1.70066995999998 	(obj:0)
prodt_x_8_2_t_x_9_1_more_irrev2_2_1    -3.05258232000002 	(obj:0)
prodt_x_9_2_t_x_11_1_more_irrev2_2_1          -1.71781092 	(obj:0)
prodt_x_11_1_t_x_13_2_more_irrev2_2_1          -1.23027673 	(obj:0)
prodt_x_13_1_t_x_14_2_more_irrev2_2_1          -0.92866839 	(obj:0)
prodt_x_15_2_t_x_16_1_more_irrev2_2_1   -0.930085539999998 	(obj:0)
prodt_x_16_2_t_x_19_1_more_irrev2_2_1   -0.506910879999999 	(obj:0)
prodt_x_17_1_t_x_20_2_more_irrev2_2_1           -0.3800445 	(obj:0)
prodt_x_18_2_t_x_19_1_more_irrev2_2_1   -0.832742509999996 	(obj:0)
prodt_x_2_1_t_x_3_3_more_irrev1_3_1          -1.44529135 	(obj:0)
prodt_x_5_3_t_x_8_1_more_irrev1_3_1          -3.48782067 	(obj:0)
prodt_x_6_1_t_x_7_3_more_irrev1_3_1   -0.818078870000005 	(obj:0)
prodt_x_7_3_t_x_10_1_more_irrev1_3_1          -1.39691008 	(obj:0)
prodt_x_10_3_t_x_11_1_more_irrev1_3_1          -2.15867138 	(obj:0)
prodt_x_11_1_t_x_14_3_more_irrev1_3_1   -0.913995909999999 	(obj:0)
prodt_x_12_3_t_x_18_1_more_irrev1_3_1    -1.60633378000001 	(obj:0)
prodt_x_13_1_t_x_14_3_more_irrev1_3_1          -0.31278061 	(obj:0)
prodt_x_14_3_t_x_16_1_more_irrev1_3_1          -1.00866386 	(obj:0)
prodt_x_2_1_t_x_4_3_more_irrev2_3_1           1.44529135 	(obj:0)
prodt_x_5_3_t_x_8_1_more_irrev2_3_1           3.48782067 	(obj:0)
prodt_x_6_1_t_x_7_3_more_irrev2_3_1    0.818078870000005 	(obj:0)
prodt_x_7_3_t_x_10_1_more_irrev2_3_1           1.39691008 	(obj:0)
prodt_x_10_3_t_x_12_1_more_irrev2_3_1           2.15867138 	(obj:0)
prodt_x_11_1_t_x_13_3_more_irrev2_3_1    0.913995909999998 	(obj:0)
prodt_x_12_3_t_x_13_1_more_irrev2_3_1     1.60633378000001 	(obj:0)
prodt_x_13_1_t_x_14_3_more_irrev2_3_1    0.312780609999999 	(obj:0)
prodt_x_14_3_t_x_15_1_more_irrev2_3_1           1.00866386 	(obj:0)
prodt_x_3_2_t_x_6_3_more_irrev1_3_2           2.66605123 	(obj:0)
prodt_x_4_2_t_x_5_3_more_irrev1_3_2     3.84653247000001 	(obj:0)
prodt_x_5_3_t_x_8_2_more_irrev1_3_2           1.26217105 	(obj:0)
prodt_x_7_3_t_x_10_2_more_irrev1_3_2           1.10847706 	(obj:0)
prodt_x_8_2_t_x_12_3_more_irrev1_3_2    0.709188299999999 	(obj:0)
prodt_x_9_2_t_x_11_3_more_irrev1_3_2    0.536182320000001 	(obj:0)
prodt_x_10_3_t_x_11_2_more_irrev1_3_2    0.357292089999998 	(obj:0)
prodt_x_12_3_t_x_18_2_more_irrev1_3_2           1.84279648 	(obj:0)
prodt_x_14_3_t_x_16_2_more_irrev1_3_2     2.76735665000001 	(obj:0)
prodt_x_3_2_t_x_6_3_more_irrev2_3_2          -2.66605123 	(obj:0)
prodt_x_4_2_t_x_5_3_more_irrev2_3_2    -3.84653247000001 	(obj:0)
prodt_x_5_3_t_x_8_2_more_irrev2_3_2          -1.26217105 	(obj:0)
prodt_x_7_3_t_x_10_2_more_irrev2_3_2          -1.10847706 	(obj:0)
prodt_x_8_2_t_x_9_3_more_irrev2_3_2   -0.709188299999999 	(obj:0)
prodt_x_9_2_t_x_11_3_more_irrev2_3_2          -0.53618232 	(obj:0)
prodt_x_10_3_t_x_12_2_more_irrev2_3_2   -0.357292089999998 	(obj:0)
prodt_x_12_3_t_x_13_2_more_irrev2_3_2          -1.84279648 	(obj:0)
prodt_x_14_3_t_x_15_2_more_irrev2_3_2    -2.76735665000001 	(obj:0)
SCIP Status        : problem is solved [optimal solution found]
Total Time         :    1957.21
  solving          :    1957.21
  presolving       :       0.03 (included in solving)
  reading          :       0.00
  copying          :       1.28 (177 #copies) (minimal 0.00, maximal 0.02, average 0.01)
Original Problem   :
  Problem name     : ../instances/Pot6Cycle/Pot6Cycle_T_20B_1t.txt.spa
  Variables        : 73 (72 binary, 0 integer, 0 implicit integer, 1 continuous)
  Constraints      : 128 initial, 128 maximal
  Objective sense  : maximize
Presolved Problem  :
  Problem name     : t_../instances/Pot6Cycle/Pot6Cycle_T_20B_1t.txt.spa
  Variables        : 340 (67 binary, 0 integer, 9 implicit integer, 264 continuous)
  Constraints      : 1124 initial, 7209 maximal
Presolvers         :   ExecTime  SetupTime  Calls  FixedVars   AggrVars   ChgTypes  ChgBounds   AddHoles    DelCons    AddCons   ChgSides   ChgCoefs
  boundshift       :       0.00       0.00      0          0          0          0          0          0          0          0          0          0
  components       :       0.00       0.00      1          0          0          0          0          0          0          0          0          0
  convertinttobin  :       0.00       0.00      0          0          0          0          0          0          0          0          0          0
  domcol           :       0.00       0.00      1          0          0          0          0          0          0          0          0          0
  dualagg          :       0.00       0.00      0          0          0          0          0          0          0          0          0          0
  dualinfer        :       0.00       0.00      0          0          0          0          0          0          0          0          0          0
  gateextraction   :       0.00       0.00      3          0          0          0          0          0         57         18          0          0
  implfree         :       0.00       0.00      0          0          0          0          0          0          0          0          0          0
  implics          :       0.00       0.00      4          0          0          0          0          0          0          0          0          0
  inttobinary      :       0.00       0.00      0          0          0          0          0          0          0          0          0          0
  redvub           :       0.00       0.00      0          0          0          0          0          0          0          0          0          0
  stuffing         :       0.00       0.00      1          0          0          0          0          0          0          0          0          0
  trivial          :       0.00       0.00      7          0          0          0          0          0          0          0          0          0
  tworowbnd        :       0.00       0.00      0          0          0          0          0          0          0          0          0          0
  dualfix          :       0.00       0.00      7          3          0          0          0          0          0          0          0          0
  genvbounds       :       0.00       0.00      0          0          0          0          0          0          0          0          0          0
  probing          :       0.01       0.00      1          0          0          0          0          0          0          0          0          0
  pseudoobj        :       0.00       0.00      0          0          0          0          0          0          0          0          0          0
  varbound         :       0.00       0.00      9          0          0          0          0          0         15         15          0          0
  setppc           :       0.00       0.00     12          0          0          0          0          0          0          0          0          0
  and              :       0.00       0.00      4          0          6          0          0          0          6          0          0          0
  linear           :       0.00       0.00      9          1          1          0          2          0          3          0          6          6
  logicor          :       0.01       0.00      7          0          0          0          0          0          0          0          0          0
  bounddisjunction :       0.00       0.00      0          0          0          0          0          0          0          0          0          0
  quadratic        :       0.01       0.00      2          0          0          0          0          0          0       1044          0          0
  root node        :          -          -      -          5          -          -        110          -          -          -          -          -
Constraints        :     Number  MaxNumber  #Separate #Propagate    #EnfoLP    #EnfoPS     #Check   #ResProp    Cutoffs    DomReds       Cuts    Applied      Conss   Children
  integral         :          0          0          0          0    1635935          0     634099          0          0      14271          0          0         84    3224002
  varbound         :        473        473         66    9862846      20999          0     233000    1843407      37351   47661503          0          0          0          0
  setppc           :         85         85         66    9825346      20999          0       1864    1172786      10601    3871999          3          0          0          0
  and              :         12         12        186       3507          0          0       1466     195726          0        211          7          3          0          0
  linear           :        536        536         66    9814898      20999          0       1447     809018     145956   64958959     591589     591474          0          0
  logicor          :         18+      1659         24    2315874          0          0          0      17521       1351     111383          0          0          0          0
  bounddisjunction :          0+      4524          0    4587687          0          0          0     763815       4196    9852051          0          0          0          0
  countsols        :          0          0          0          0          0          0     401061          0          0          0          0          0          0          0
Constraint Timings :  TotalTime  SetupTime   Separate  Propagate     EnfoLP     EnfoPS      Check    ResProp    SB-Prop
  integral         :      10.60       0.00       0.00       0.00      10.50       0.00       0.10       0.00       0.00
  varbound         :      38.83       0.00       0.00      37.75       0.08       0.00       0.57       0.36       0.07
  setppc           :      20.88       0.00       0.00      20.55       0.00       0.00       0.00       0.30       0.03
  and              :       0.05       0.00       0.00       0.00       0.00       0.00       0.00       0.05       0.00
  linear           :      98.32       0.00       0.01      97.07       0.45       0.00       0.02       0.62       0.15
  logicor          :       5.57       0.00       0.00       5.56       0.00       0.00       0.00       0.01       0.00
  bounddisjunction :      87.17       0.00       0.00      86.96       0.00       0.00       0.00       0.20       0.01
  countsols        :       0.02       0.00       0.00       0.00       0.00       0.00       0.02       0.00       0.00
Propagators        : #Propagate   #ResProp    Cutoffs    DomReds
  dualfix          :          2          0          0          0
  genvbounds       :          0          0          0          0
  obbt             :          0          0          0          0
  probing          :          0          0          0          0
  pseudoobj        :   10572859          0        362         86
  redcost          :    3669553          0          0     580794
  rootredcost      :          7          0          0          3
  vbounds          :   11497295       3303          0         71
Propagator Timings :  TotalTime  SetupTime   Presolve  Propagate    ResProp    SB-Prop
  dualfix          :       0.00       0.00       0.00       0.00       0.00       0.00
  genvbounds       :       1.45       0.00       0.00       1.45       0.00       0.00
  obbt             :       0.00       0.00       0.00       0.00       0.00       0.00
  probing          :       0.01       0.00       0.01       0.00       0.00       0.00
  pseudoobj        :       3.05       0.00       0.00       3.05       0.00       0.00
  redcost          :      13.53       0.00       0.00      13.53       0.00       0.00
  rootredcost      :       1.76       0.00       0.00       1.76       0.00       0.00
  vbounds          :       3.24       0.00       0.00       3.24       0.00       0.00
Conflict Analysis  :       Time      Calls    Success    DomReds  Conflicts   Literals    Reconvs ReconvLits   LP Iters
  propagation      :       2.48      54338      53410          -     659238       38.3      10574       43.6          -
  infeasible LP    :       6.57      72488      68825          -     876895       30.9         15       12.6          0
  bound exceed. LP :       0.00          0          0          -          0        0.0          0        0.0          0
  strong branching :       0.00          0          0          -          0        0.0          0        0.0          0
  pseudo solution  :       0.00          0          0          -          0        0.0          0        0.0          -
  applied globally :       1.48          -          -          0     207377       20.8          -          -          -
  applied locally  :          -          -          -          0       2559       34.0          -          -          -
Separators         :   ExecTime  SetupTime      Calls    Cutoffs    DomReds       Cuts    Applied      Conss
  cut pool         :       0.00                    64          -          -        871          -          -    (maximal pool size: 714)
  cgmip            :       0.00       0.00          0          0          0          0          0          0
  clique           :       0.00       0.00         65          0          0          3          2          0
  closecuts        :       0.00       0.00          0          0          0          0          0          0
  cmir             :       0.02       0.00         10          0          0        414        390          0
  disjunctive      :       0.00       0.00          0          0          0          0          0          0
  eccuts           :       0.00       0.00          0          0          0          0          0          0
  flowcover        :       0.09       0.00         15          0          0        174         12          0
  gomory           :       0.01       0.00         10          0          0          9          9          0
  impliedbounds    :       0.00       0.00         65          0          0        317         73          0
  intobj           :       0.00       0.00          0          0          0          0          0          0
  mcf              :       0.00       0.00          1          0          0          0          0          0
  oddcycle         :       0.00       0.00          0          0          0          0          0          0
  rapidlearning    :       0.00       0.00          0          0          0          0          0          0
  strongcg         :       0.03       0.00         20          0          0          0          0          0
  zerohalf         :       0.00       0.00          0          0          0          0          0          0
Pricers            :   ExecTime  SetupTime      Calls       Vars
  problem variables:       0.00          -          0          0
Branching Rules    :   ExecTime  SetupTime   BranchLP  BranchExt   BranchPS    Cutoffs    DomReds       Cuts      Conss   Children
  allfullstrong    :       0.00       0.00          0          0          0          0          0          0          0          0
  cloud            :       0.00       0.00          0          0          0          0          0          0          0          0
  distribution     :       0.00       0.00          0          0          0          0          0          0          0          0
  fullstrong       :       0.00       0.00          0          0          0          0          0          0          0          0
  inference        :       0.00       0.00          0          0          0          0          0          0          0          0
  leastinf         :       0.00       0.00          0          0          0          0          0          0          0          0
  mostinf          :       0.00       0.00          0          0          0          0          0          0          0          0
  multaggr         :       0.00       0.00          0          0          0          0          0          0          0          0
  nodereopt        :       0.00       0.00          0          0          0          0          0          0          0          0
  pscost           :       0.00       0.00          0          0          0          0          0          0          0          0
  random           :       0.00       0.00          0          0          0          0          0          0          0          0
  relpscost        :       9.81       0.00    1614936          0          0          0      14271          0       -378    3224002
Primal Heuristics  :   ExecTime  SetupTime      Calls      Found       Best
  LP solutions     :       0.00          -          -          0          -
  pseudo solutions :       0.00          -          -          0          -
  strong branching :       0.01          -          -          0          -
  SpaGreedy        :      92.81       0.00     401054          2          1
  actconsdiving    :       0.00       0.00          0          0          0
  bound            :       0.00       0.00          0          0          0
  clique           :       0.00       0.00          0          0          0
  coefdiving       :      14.14       0.00       6952          0          0
  crossover        :       0.57       0.00          0          0          0
  dins             :       0.00       0.00          0          0          0
  distributiondivin:      27.29       0.00       6951          0          0
  dualval          :       0.00       0.00          0          0          0
  feaspump         :      10.57       0.00       1475          0          0
  fixandinfer      :       0.00       0.00          0          0          0
  fracdiving       :      12.98       0.00       6952          0          0
  guideddiving     :      12.88       0.00       6952          0          0
  indicator        :       0.23       0.00          0          0          0
  intdiving        :       0.00       0.00          0          0          0
  intshifting      :       0.34       0.00        161          0          0
  linesearchdiving :      12.57       0.00       6952          0          0
  localbranching   :       0.00       0.00          0          0          0
  mutation         :       0.00       0.00          0          0          0
  nlpdiving        :       0.00       0.00          0          0          0
  objpscostdiving  :       9.02       0.00       2637          0          0
  octane           :       0.00       0.00          0          0          0
  ofins            :       0.00       0.00          0          0          0
  oneopt           :       0.50       0.00          6          0          0
  proximity        :       0.00       0.00          0          0          0
  pscostdiving     :      13.67       0.00       6952          3          3
  randrounding     :       1.88       0.00     231603          0          0
  rens             :       0.00       0.00          0          0          0
  reoptsols        :       0.00       0.00          0          0          0
  rins             :       7.78       0.00        156          3          3
  rootsoldiving    :       9.32       0.00       2571          0          0
  rounding         :       0.69       0.00      17710          0          0
  shiftandpropagate:       0.00       0.00          0          0          0
  shifting         :       1.92       0.00       6738          0          0
  simplerounding   :       0.38       0.00          0          0          0
  subnlp           :       0.44       0.00          0          0          0
  trivial          :       0.00       0.00          2          0          0
  trivialnegation  :       0.00       0.00          0          0          0
  trysol           :       0.64       0.00          0          0          0
  twoopt           :       0.00       0.00          0          0          0
  undercover       :       0.00       0.00          1          0          0
  vbounds          :       0.00       0.00          0          0          0
  veclendiving     :      14.56       0.00       6952          0          0
  zeroobj          :       0.00       0.00          0          0          0
  zirounding       :       0.66       0.00       1000          0          0
  other solutions  :          -          -          -          0          -
Diving Statistics  :      Calls      Nodes   LP Iters Backtracks   MinDepth   MaxDepth   AvgDepth  NLeafSols  MinSolDpt  MaxSolDpt  AvgSolDpt
  actconsdiving    :          0          -          -          -          -          -          -          -          -          -          -
  coefdiving       :       6952      49881     403525       8356         17         38       26.2          -          -          -          -
  distributiondivin:       6951      44775     406603       8525         16         38       25.2          -          -          -          -
  fracdiving       :       6952      49189     401126      10466         15         38       25.8          -          -          -          -
  guideddiving     :       6952      51189     375202       9148         17         39       26.3          -          -          -          -
  linesearchdiving :       6952      43267     371075      10041         15         38       25.0          -          -          -          -
  pscostdiving     :       6952      61463     399654       7680         16         41       27.9          -          -          -          -
  veclendiving     :       6952      46640     389903      10291         16         38       25.5          -          -          -          -
LP                 :       Time      Calls Iterations  Iter/call   Iter/sec  Time-0-It Calls-0-It
  primal LP        :       0.00         10          0       0.00          -       0.00         10
  dual LP          :     849.91    3528246   43033297      14.54   50632.77      36.61     569483
  lex dual LP      :       0.00          0          0       0.00          -
  barrier LP       :       0.00          0          0       0.00          -       0.00          0
  diving/probing LP:      78.97     216293    4050598      18.73   51292.87
  strong branching :       1.73       3681      85473      23.22   49406.36
    (at root node) :          -         21       2148     102.29          -
  conflict analysis:       0.00          0          0       0.00          -
B&B Tree           :
  number of runs   :          1
  nodes            :    3217086 (1612001 internal, 1605085 leaves)
  nodes (total)    :    3217086 (1612001 internal, 1605085 leaves)
  nodes left       :          0
  max depth        :         36
  max depth (total):         36
  backtracks       :     931021 (28.9%)
  delayed cutoffs  :       6477
  repropagations   :     142684 (1537183 domain reductions, 6056 cutoffs)
  avg switch length:       6.69
  switching time   :     311.15
Root Node          :
  First LP value   : +2.00000000000000e+00
  First LP Iters   :        191
  First LP Time    :       0.00
  Final Dual Bound : +1.10492135126565e-02
  Final Root Iters :       3695
Solution           :
  Solutions found  :          8 (7 improvements)
  First Solution   : +1.03489565400000e-03   (in run 1, after 1 nodes, 0.03 seconds, depth 0, found by <SpaGreedy>)
  Gap First Sol.   :   infinite
  Gap Last Sol.    :      62.23 %
  Primal Bound     : +1.50930810500008e-03   (in run 1, after 189260 nodes, 117.97 seconds, depth 25, found by <rins>)
  Dual Bound       : +1.50930810500008e-03
  Gap              :       0.00 %
  Avg. Gap         :      32.04 % (62718.63 primal-dual integral)
